Total weight: 1541.6
Route 1: 0 46 45 8 6 7 4 5 3 1 2 0 
Route 2: 0 53 12 14 11 15 16 9 10 13 82 0 
Route 3: 0 57 22 23 25 77 0 
Route 4: 0 83 21 48 18 19 49 20 24 0 
Route 5: 0 27 26 28 30 32 33 84 91 0 
Route 6: 0 67 50 34 31 29 35 40 44 0 
Route 7: 0 42 39 36 37 38 41 43 70 100 0 
Route 8: 0 69 98 88 78 60 0 
Route 9: 0 17 47 73 79 55 0 
Route 10: 0 85 63 51 76 89 64 56 0 
Route 11: 0 65 52 86 74 0 
Route 12: 0 80 66 90 0 
Route 13: 0 93 71 72 54 0 
Route 14: 0 92 95 62 94 96 81 0 
Route 15: 0 61 68 0 
Route 16: 0 99 87 59 97 75 58 0 
